lattice_vector  22.2128314972  0.0000000000  0.0000000000
lattice_vector  -0.0225341246 15.9543962479  0.0000000000
lattice_vector  -0.0321444198 -0.0011807615 16.9510707855
atom_frac  0.426642001  0.062304001  0.118943997 S  
atom_frac  0.426642001  0.062304001  0.368943989 S  
atom_frac  0.426642001  0.062304001  0.618943989 S  
atom_frac  0.426642001  0.062304001  0.868943989 S  
atom_frac  0.426642001  0.312303990  0.118943997 S  
atom_frac  0.426642001  0.312303990  0.368943989 S  
atom_frac  0.426642001  0.312303990  0.618943989 S  
atom_frac  0.426642001  0.312303990  0.868943989 S  
atom_frac  0.426642001  0.562304020  0.118943997 S  
atom_frac  0.426642001  0.562304020  0.368943989 S  
atom_frac  0.426642001  0.562304020  0.618943989 S  
atom_frac  0.426642001  0.562304020  0.868943989 S  
atom_frac  0.426642001  0.812304020  0.118943997 S  
atom_frac  0.426642001  0.812304020  0.368943989 S  
atom_frac  0.426642001  0.812304020  0.618943989 S  
atom_frac  0.426642001  0.812304020  0.868943989 S  
atom_frac  0.926642001  0.062304001  0.118943997 S  
atom_frac  0.926642001  0.062304001  0.368943989 S  
atom_frac  0.926642001  0.062304001  0.618943989 S  
atom_frac  0.926642001  0.062304001  0.868943989 S  
atom_frac  0.926642001  0.312303990  0.118943997 S  
atom_frac  0.926642001  0.312303990  0.368943989 S  
atom_frac  0.926642001  0.312303990  0.618943989 S  
atom_frac  0.926642001  0.312303990  0.868943989 S  
atom_frac  0.926642001  0.562304020  0.118943997 S  
atom_frac  0.926642001  0.562304020  0.368943989 S  
atom_frac  0.926642001  0.562304020  0.618943989 S  
atom_frac  0.926642001  0.562304020  0.868943989 S  
atom_frac  0.926642001  0.812304020  0.118943997 S  
atom_frac  0.926642001  0.812304020  0.368943989 S  
atom_frac  0.926642001  0.812304020  0.618943989 S  
atom_frac  0.926642001  0.812304020  0.868943989 S  
atom_frac  0.073357999  0.187695995  0.131055996 S  
atom_frac  0.073357999  0.187695995  0.381056011 S  
atom_frac  0.073357999  0.187695995  0.631056011 S  
atom_frac  0.073357999  0.187695995  0.881056011 S  
atom_frac  0.073357999  0.437696010  0.131055996 S  
atom_frac  0.073357999  0.437696010  0.381056011 S  
atom_frac  0.073357999  0.437696010  0.631056011 S  
atom_frac  0.073357999  0.437696010  0.881056011 S  
atom_frac  0.073357999  0.687695980  0.131055996 S  
atom_frac  0.073357999  0.687695980  0.381056011 S  
atom_frac  0.073357999  0.687695980  0.631056011 S  
atom_frac  0.073357999  0.687695980  0.881056011 S  
atom_frac  0.073357999  0.937695980  0.131055996 S  
atom_frac  0.073357999  0.937695980  0.381056011 S  
atom_frac  0.073357999  0.937695980  0.631056011 S  
atom_frac  0.073357999  0.937695980  0.881056011 S  
atom_frac  0.573357999  0.187695995  0.131055996 S  
atom_frac  0.573357999  0.187695995  0.381056011 S  
atom_frac  0.573357999  0.187695995  0.631056011 S  
atom_frac  0.573357999  0.187695995  0.881056011 S  
atom_frac  0.573357999  0.437696010  0.131055996 S  
atom_frac  0.573357999  0.437696010  0.381056011 S  
atom_frac  0.573357999  0.437696010  0.631056011 S  
atom_frac  0.573357999  0.437696010  0.881056011 S  
atom_frac  0.573357999  0.687695980  0.131055996 S  
atom_frac  0.573357999  0.687695980  0.381056011 S  
atom_frac  0.573357999  0.687695980  0.631056011 S  
atom_frac  0.573357999  0.687695980  0.881056011 S  
atom_frac  0.573357999  0.937695980  0.131055996 S  
atom_frac  0.573357999  0.937695980  0.381056011 S  
atom_frac  0.573357999  0.937695980  0.631056011 S  
atom_frac  0.573357999  0.937695980  0.881056011 S  
atom_frac  0.323404998  0.187333003  0.243772998 S  
atom_frac  0.323404998  0.187333003  0.493773013 S  
atom_frac  0.323404998  0.187333003  0.743772984 S  
atom_frac  0.323404998  0.187333003  0.993772984 S  
atom_frac  0.323404998  0.437332988  0.243772998 S  
atom_frac  0.323404998  0.437332988  0.493773013 S  
atom_frac  0.323404998  0.437332988  0.743772984 S  
atom_frac  0.323404998  0.437332988  0.993772984 S  
atom_frac  0.323404998  0.687332988  0.243772998 S  
atom_frac  0.323404998  0.687332988  0.493773013 S  
atom_frac  0.323404998  0.687332988  0.743772984 S  
atom_frac  0.323404998  0.687332988  0.993772984 S  
atom_frac  0.323404998  0.937332988  0.243772998 S  
atom_frac  0.323404998  0.937332988  0.493773013 S  
atom_frac  0.323404998  0.937332988  0.743772984 S  
atom_frac  0.323404998  0.937332988  0.993772984 S  
atom_frac  0.823405027  0.187333003  0.243772998 S  
atom_frac  0.823405027  0.187333003  0.493773013 S  
atom_frac  0.823405027  0.187333003  0.743772984 S  
atom_frac  0.823405027  0.187333003  0.993772984 S  
atom_frac  0.823405027  0.437332988  0.243772998 S  
atom_frac  0.823405027  0.437332988  0.493773013 S  
atom_frac  0.823405027  0.437332988  0.743772984 S  
atom_frac  0.823405027  0.437332988  0.993772984 S  
atom_frac  0.823405027  0.687332988  0.243772998 S  
atom_frac  0.823405027  0.687332988  0.493773013 S  
atom_frac  0.823405027  0.687332988  0.743772984 S  
atom_frac  0.823405027  0.687332988  0.993772984 S  
atom_frac  0.823405027  0.937332988  0.243772998 S  
atom_frac  0.823405027  0.937332988  0.493773013 S  
atom_frac  0.823405027  0.937332988  0.743772984 S  
atom_frac  0.823405027  0.937332988  0.993772984 S  
atom_frac  0.176595002  0.062666997  0.006227000 S  
atom_frac  0.176595002  0.062666997  0.256226987 S  
atom_frac  0.176595002  0.062666997  0.506227016 S  
atom_frac  0.176595002  0.062666997  0.756227016 S  
atom_frac  0.176595002  0.312667012  0.006227000 S  
atom_frac  0.176595002  0.312667012  0.256226987 S  
atom_frac  0.176595002  0.312667012  0.506227016 S  
atom_frac  0.176595002  0.312667012  0.756227016 S  
atom_frac  0.176595002  0.562667012  0.006227000 S  
atom_frac  0.176595002  0.562667012  0.256226987 S  
atom_frac  0.176595002  0.562667012  0.506227016 S  
atom_frac  0.176595002  0.562667012  0.756227016 S  
atom_frac  0.176595002  0.812667012  0.006227000 S  
atom_frac  0.176595002  0.812667012  0.256226987 S  
atom_frac  0.176595002  0.812667012  0.506227016 S  
atom_frac  0.176595002  0.812667012  0.756227016 S  
atom_frac  0.676594973  0.062666997  0.006227000 S  
atom_frac  0.676594973  0.062666997  0.256226987 S  
atom_frac  0.676594973  0.062666997  0.506227016 S  
atom_frac  0.676594973  0.062666997  0.756227016 S  
atom_frac  0.676594973  0.312667012  0.006227000 S  
atom_frac  0.676594973  0.312667012  0.256226987 S  
atom_frac  0.676594973  0.312667012  0.506227016 S  
atom_frac  0.676594973  0.312667012  0.756227016 S  
atom_frac  0.676594973  0.562667012  0.006227000 S  
atom_frac  0.676594973  0.562667012  0.256226987 S  
atom_frac  0.676594973  0.562667012  0.506227016 S  
atom_frac  0.676594973  0.562667012  0.756227016 S  
atom_frac  0.676594973  0.812667012  0.006227000 S  
atom_frac  0.676594973  0.812667012  0.256226987 S  
atom_frac  0.676594973  0.812667012  0.506227016 S  
atom_frac  0.676594973  0.812667012  0.756227016 S  
atom_frac  0.059261002  0.062666997  0.027617000 Sn 
atom_frac  0.059261002  0.062666997  0.277617007 Sn 
atom_frac  0.059261002  0.062666997  0.527616978 Sn 
atom_frac  0.059261002  0.062666997  0.777616978 Sn 
atom_frac  0.059261002  0.312667012  0.027617000 Sn 
atom_frac  0.059261002  0.312667012  0.277617007 Sn 
atom_frac  0.059261002  0.312667012  0.527616978 Sn 
atom_frac  0.059261002  0.312667012  0.777616978 Sn 
atom_frac  0.059261002  0.562667012  0.027617000 Sn 
atom_frac  0.059261002  0.562667012  0.277617007 Sn 
atom_frac  0.059261002  0.562667012  0.527616978 Sn 
atom_frac  0.059261002  0.562667012  0.777616978 Sn 
atom_frac  0.059261002  0.812667012  0.027617000 Sn 
atom_frac  0.059261002  0.812667012  0.277617007 Sn 
atom_frac  0.059261002  0.812667012  0.527616978 Sn 
atom_frac  0.059261002  0.812667012  0.777616978 Sn 
atom_frac  0.559261024  0.062666997  0.027617000 Sn 
atom_frac  0.559261024  0.062666997  0.277617007 Sn 
atom_frac  0.559261024  0.062666997  0.527616978 Sn 
atom_frac  0.559261024  0.062666997  0.777616978 Sn 
atom_frac  0.559261024  0.312667012  0.027617000 Sn 
atom_frac  0.559261024  0.312667012  0.277617007 Sn 
atom_frac  0.559261024  0.312667012  0.527616978 Sn 
atom_frac  0.559261024  0.312667012  0.777616978 Sn 
atom_frac  0.559261024  0.562667012  0.027617000 Sn 
atom_frac  0.559261024  0.562667012  0.277617007 Sn 
atom_frac  0.559261024  0.562667012  0.527616978 Sn 
atom_frac  0.559261024  0.562667012  0.777616978 Sn 
atom_frac  0.559261024  0.812667012  0.027617000 Sn 
atom_frac  0.559261024  0.812667012  0.277617007 Sn 
atom_frac  0.559261024  0.812667012  0.527616978 Sn 
atom_frac  0.559261024  0.812667012  0.777616978 Sn 
atom_frac  0.440739006  0.187333003  0.222383007 Sn 
atom_frac  0.440739006  0.187333003  0.472382993 Sn 
atom_frac  0.440739006  0.187333003  0.722383022 Sn 
atom_frac  0.440739006  0.187333003  0.972383022 Sn 
atom_frac  0.440739006  0.437332988  0.222383007 Sn 
atom_frac  0.440739006  0.437332988  0.472382993 Sn 
atom_frac  0.440739006  0.437332988  0.722383022 Sn 
atom_frac  0.440739006  0.437332988  0.972383022 Sn 
atom_frac  0.440739006  0.687332988  0.222383007 Sn 
atom_frac  0.440739006  0.687332988  0.472382993 Sn 
atom_frac  0.440739006  0.687332988  0.722383022 Sn 
atom_frac  0.440739006  0.687332988  0.972383022 Sn 
atom_frac  0.440739006  0.937332988  0.222383007 Sn 
atom_frac  0.440739006  0.937332988  0.472382993 Sn 
atom_frac  0.440739006  0.937332988  0.722383022 Sn 
atom_frac  0.440739006  0.937332988  0.972383022 Sn 
atom_frac  0.940738976  0.187333003  0.222383007 Sn 
atom_frac  0.940738976  0.187333003  0.472382993 Sn 
atom_frac  0.940738976  0.187333003  0.722383022 Sn 
atom_frac  0.940738976  0.187333003  0.972383022 Sn 
atom_frac  0.940738976  0.437332988  0.222383007 Sn 
atom_frac  0.940738976  0.437332988  0.472382993 Sn 
atom_frac  0.940738976  0.437332988  0.722383022 Sn 
atom_frac  0.940738976  0.437332988  0.972383022 Sn 
atom_frac  0.940738976  0.687332988  0.222383007 Sn 
atom_frac  0.940738976  0.687332988  0.472382993 Sn 
atom_frac  0.940738976  0.687332988  0.722383022 Sn 
atom_frac  0.940738976  0.687332988  0.972383022 Sn 
atom_frac  0.940738976  0.937332988  0.222383007 Sn 
atom_frac  0.940738976  0.937332988  0.472382993 Sn 
atom_frac  0.940738976  0.937332988  0.722383022 Sn 
atom_frac  0.940738976  0.937332988  0.972383022 Sn 
atom_frac  0.190697998  0.187616006  0.152738005 Sn 
atom_frac  0.190697998  0.187616006  0.402738005 Sn 
atom_frac  0.190697998  0.187616006  0.652737975 Sn 
atom_frac  0.190697998  0.187616006  0.902737975 Sn 
atom_frac  0.190697998  0.437615991  0.152738005 Sn 
atom_frac  0.190697998  0.437615991  0.402738005 Sn 
atom_frac  0.190697998  0.437615991  0.652737975 Sn 
atom_frac  0.190697998  0.437615991  0.902737975 Sn 
atom_frac  0.190697998  0.687615991  0.152738005 Sn 
atom_frac  0.190697998  0.687615991  0.402738005 Sn 
atom_frac  0.190697998  0.687615991  0.652737975 Sn 
atom_frac  0.190697998  0.687615991  0.902737975 Sn 
atom_frac  0.190697998  0.937615991  0.152738005 Sn 
atom_frac  0.190697998  0.937615991  0.402738005 Sn 
atom_frac  0.190697998  0.937615991  0.652737975 Sn 
atom_frac  0.190697998  0.937615991  0.902737975 Sn 
atom_frac  0.690698028  0.187616006  0.152738005 Sn 
atom_frac  0.690698028  0.187616006  0.402738005 Sn 
atom_frac  0.690698028  0.187616006  0.652737975 Sn 
atom_frac  0.690698028  0.187616006  0.902737975 Sn 
atom_frac  0.690698028  0.437615991  0.152738005 Sn 
atom_frac  0.690698028  0.437615991  0.402738005 Sn 
atom_frac  0.690698028  0.437615991  0.652737975 Sn 
atom_frac  0.690698028  0.437615991  0.902737975 Sn 
atom_frac  0.690698028  0.687615991  0.152738005 Sn 
atom_frac  0.690698028  0.687615991  0.402738005 Sn 
atom_frac  0.690698028  0.687615991  0.652737975 Sn 
atom_frac  0.690698028  0.687615991  0.902737975 Sn 
atom_frac  0.690698028  0.937615991  0.152738005 Sn 
atom_frac  0.690698028  0.937615991  0.402738005 Sn 
atom_frac  0.690698028  0.937615991  0.652737975 Sn 
atom_frac  0.690698028  0.937615991  0.902737975 Sn 
atom_frac  0.309302002  0.062383998  0.097262003 Sn 
atom_frac  0.309302002  0.062383998  0.347261995 Sn 
atom_frac  0.309302002  0.062383998  0.597262025 Sn 
atom_frac  0.309302002  0.062383998  0.847262025 Sn 
atom_frac  0.309302002  0.312384009  0.097262003 Sn 
atom_frac  0.309302002  0.312384009  0.347261995 Sn 
atom_frac  0.309302002  0.312384009  0.597262025 Sn 
atom_frac  0.309302002  0.312384009  0.847262025 Sn 
atom_frac  0.309302002  0.562384009  0.097262003 Sn 
atom_frac  0.309302002  0.562384009  0.347261995 Sn 
atom_frac  0.309302002  0.562384009  0.597262025 Sn 
atom_frac  0.309302002  0.562384009  0.847262025 Sn 
atom_frac  0.309302002  0.812384009  0.097262003 Sn 
atom_frac  0.309302002  0.812384009  0.347261995 Sn 
atom_frac  0.309302002  0.812384009  0.597262025 Sn 
atom_frac  0.309302002  0.812384009  0.847262025 Sn 
atom_frac  0.809301972  0.062383998  0.097262003 Sn 
atom_frac  0.809301972  0.062383998  0.347261995 Sn 
atom_frac  0.809301972  0.062383998  0.597262025 Sn 
atom_frac  0.809301972  0.062383998  0.847262025 Sn 
atom_frac  0.809301972  0.312384009  0.097262003 Sn 
atom_frac  0.809301972  0.312384009  0.347261995 Sn 
atom_frac  0.809301972  0.312384009  0.597262025 Sn 
atom_frac  0.809301972  0.312384009  0.847262025 Sn 
atom_frac  0.809301972  0.562384009  0.097262003 Sn 
atom_frac  0.809301972  0.562384009  0.347261995 Sn 
atom_frac  0.809301972  0.562384009  0.597262025 Sn 
atom_frac  0.809301972  0.562384009  0.847262025 Sn 
atom_frac  0.809301972  0.812384009  0.097262003 Sn 
atom_frac  0.809301972  0.812384009  0.347261995 Sn 
atom_frac  0.809301972  0.812384009  0.597262025 Sn 
atom_frac  0.809301972  0.812384009  0.847262025 Sn 
